c FILE /home/rafael/Documents/HappySet/MIHS/inputs/happygen/output/graph_d_regular_k5_p0.4_v50_20241127_082634.txt
c SOURCE This is a d-regular graph formed for the happy graph colouring problem.
c DESCRIPTION It was generated using the problem generator of Rhyd Lewis
c
c GRAPH STATS
c Seed                             = 617932239
c Number of Nodes                  = 50
c Number of colours k              = 5
c Number of pre-assignments        = 20
c Degree of all vertices           = 6
c Density                          = 0.122449
c 
c The degrees of nodes 1 to 50, respectively, are as follows 
c [6, 6, 6, 6, 6, 6, 6, 6, 6, 6, 6, 6, 6, 6, 6, 6, 6, 6, 6, 6, 6, 6, 6, 6, 6, 6, 
c  6, 6, 6, 6, 6, 6, 6, 6, 6, 6, 6, 6, 6, 6, 6, 6, 6, 6, 6, 6, 6, 6, 6, 6] 
c  
p edge 50 150 5
e 1 8
e 1 18
e 1 20
e 1 33
e 1 34
e 1 38
e 2 6
e 2 10
e 2 16
e 2 19
e 2 28
e 2 32
e 3 19
e 3 28
e 3 33
e 3 39
e 3 43
e 3 45
e 4 14
e 4 29
e 4 33
e 4 37
e 4 40
e 4 48
e 5 7
e 5 9
e 5 21
e 5 36
e 5 47
e 5 48
e 6 22
e 6 30
e 6 34
e 6 35
e 6 43
e 7 9
e 7 12
e 7 15
e 7 16
e 7 48
e 8 15
e 8 18
e 8 23
e 8 31
e 8 42
e 9 14
e 9 15
e 9 38
e 9 47
e 10 13
e 10 27
e 10 28
e 10 41
e 10 48
e 11 24
e 11 26
e 11 29
e 11 36
e 11 38
e 11 43
e 12 17
e 12 23
e 12 29
e 12 37
e 12 50
e 13 23
e 13 25
e 13 33
e 13 37
e 13 41
e 14 15
e 14 21
e 14 22
e 14 46
e 15 21
e 15 44
e 16 18
e 16 32
e 16 38
e 16 39
e 17 28
e 17 30
e 17 31
e 17 36
e 17 50
e 18 21
e 18 25
e 18 46
e 19 22
e 19 27
e 19 45
e 19 49
e 20 21
e 20 26
e 20 31
e 20 35
e 20 41
e 21 45
e 22 32
e 22 35
e 22 41
e 23 31
e 23 36
e 23 38
e 24 28
e 24 34
e 24 37
e 24 40
e 24 46
e 25 29
e 25 40
e 25 47
e 25 49
e 26 27
e 26 32
e 26 39
e 26 44
e 27 44
e 27 45
e 27 49
e 28 30
e 29 33
e 29 46
e 30 42
e 30 43
e 30 50
e 31 36
e 31 50
e 32 36
e 32 39
e 33 39
e 34 38
e 34 40
e 34 44
e 35 40
e 35 41
e 35 50
e 37 42
e 37 49
e 39 42
e 40 42
e 41 48
e 42 48
e 43 46
e 43 50
e 44 45
e 44 47
e 45 47
e 46 49
e 47 49
n 1 2
n 2 5
n 4 1
n 6 5
n 7 1
n 14 1
n 15 1
n 17 5
n 18 2
n 23 3
n 27 4
n 28 5
n 29 1
n 30 5
n 35 5
n 37 1
n 39 3
n 45 4
n 47 4
n 48 1
